%nproc=1
%mem=1gb
#p casscf/def2svp 

mokit{ hardwfn}

0 1
C   0.732363   -0.000012   -0.000020
H   1.301788   -0.654778    0.654835
H   1.301802    0.654848   -0.654762
C  -0.732363   -0.000012    0.000020
H  -1.301788   -0.654778   -0.654836
H  -1.301802    0.654848    0.654762
