 $CONTRL SCFTYP=GVB RUNTYP=ENERGY ICHARG=0 MULT=1 NOSYM=1 ICUT=10
  MAXIT=500 RELWFN=DK ISPHER=1 $END
 $SYSTEM MWORDS=125 $END
 $RELWFN NORDER=1 $END
 $SCF NCO=2 NPAIR=6 DIRSCF=.TRUE. $END
 $GUESS GUESS=MOREAD NORB=48 $END
 $DATA
GAMESS inp format file produced by MOKIT, nbf=48
C1   1
C     6.         0.73236300        -0.00001200        -0.00002000
   S  5
   1   1.23840169E+03   5.51736505E-03   0.00000000E+00
   2   1.86290050E+02   4.10888286E-02   0.00000000E+00
   3   4.22511763E+01   1.82253821E-01   0.00000000E+00
   4   1.16765579E+01   4.68284594E-01   0.00000000E+00
   5   3.59305065E+00   4.45758173E-01   0.00000000E+00
   S  1
   1   4.02451474E-01   1.00000000E+00   0.00000000E+00
   S  1
   1   1.30901827E-01   1.00000000E+00   0.00000000E+00
   P  3
   1   9.46809706E+00   5.68883320E-02   0.00000000E+00
   2   2.01035451E+00   3.12940593E-01   0.00000000E+00
   3   5.47710047E-01   7.60650165E-01   0.00000000E+00
   P  1
   1   1.52686138E-01   1.00000000E+00   0.00000000E+00
   D  1
   1   8.00000000E-01   1.00000000E+00   0.00000000E+00

H     1.         1.30178800        -0.65477800         0.65483500
   S  3
   1   1.30107010E+01   3.34854848E-02   0.00000000E+00
   2   1.96225720E+00   2.34721871E-01   0.00000000E+00
   3   4.44537960E-01   8.13770285E-01   0.00000000E+00
   S  1
   1   1.21949620E-01   1.00000000E+00   0.00000000E+00
   P  1
   1   8.00000000E-01   1.00000000E+00   0.00000000E+00

H     1.         1.30180201         0.65484800        -0.65476200
   S  3
   1   1.30107010E+01   3.34854848E-02   0.00000000E+00
   2   1.96225720E+00   2.34721871E-01   0.00000000E+00
   3   4.44537960E-01   8.13770285E-01   0.00000000E+00
   S  1
   1   1.21949620E-01   1.00000000E+00   0.00000000E+00
   P  1
   1   8.00000000E-01   1.00000000E+00   0.00000000E+00

C     6.        -0.73236300        -0.00001200         0.00002000
   S  5
   1   1.23840169E+03   5.51736505E-03   0.00000000E+00
   2   1.86290050E+02   4.10888286E-02   0.00000000E+00
   3   4.22511763E+01   1.82253821E-01   0.00000000E+00
   4   1.16765579E+01   4.68284594E-01   0.00000000E+00
   5   3.59305065E+00   4.45758173E-01   0.00000000E+00
   S  1
   1   4.02451474E-01   1.00000000E+00   0.00000000E+00
   S  1
   1   1.30901827E-01   1.00000000E+00   0.00000000E+00
   P  3
   1   9.46809706E+00   5.68883320E-02   0.00000000E+00
   2   2.01035451E+00   3.12940593E-01   0.00000000E+00
   3   5.47710047E-01   7.60650165E-01   0.00000000E+00
   P  1
   1   1.52686138E-01   1.00000000E+00   0.00000000E+00
   D  1
   1   8.00000000E-01   1.00000000E+00   0.00000000E+00

H     1.        -1.30178800        -0.65477800        -0.65483600
   S  3
   1   1.30107010E+01   3.34854848E-02   0.00000000E+00
   2   1.96225720E+00   2.34721871E-01   0.00000000E+00
   3   4.44537960E-01   8.13770285E-01   0.00000000E+00
   S  1
   1   1.21949620E-01   1.00000000E+00   0.00000000E+00
   P  1
   1   8.00000000E-01   1.00000000E+00   0.00000000E+00

H     1.        -1.30180201         0.65484800         0.65476200
   S  3
   1   1.30107010E+01   3.34854848E-02   0.00000000E+00
   2   1.96225720E+00   2.34721871E-01   0.00000000E+00
   3   4.44537960E-01   8.13770285E-01   0.00000000E+00
   S  1
   1   1.21949620E-01   1.00000000E+00   0.00000000E+00
   P  1
   1   8.00000000E-01   1.00000000E+00   0.00000000E+00

 $END
 $VEC
 1  1-7.04484652E-01-1.57973342E-02 1.26120665E-02-3.12678199E-03-2.01504839E-08
 1  2 2.93434186E-08 1.07425135E-03 3.87760295E-08 4.31129754E-07 4.16666674E-04
 1  3-2.08350305E-04-2.08316369E-04-8.46711389E-08-7.46295591E-08 9.94701537E-04
 1  4 3.76478325E-03-3.46218801E-03-3.32272003E-04 6.12763684E-04-6.12898536E-04
 1  5 3.76486721E-03-3.46189628E-03-3.32323710E-04-6.12903389E-04 6.12741494E-04
 1  6-7.04365223E-01-1.70474092E-02 1.83729411E-02 3.40582047E-03-3.91826983E-08
 1  7-1.34966218E-08 2.97843646E-04 8.03199796E-08-5.63128300E-07 6.42777156E-04
 1  8-3.21395916E-04-3.21381240E-04 6.15006167E-08-5.89225921E-08-5.70013656E-04
 1  9 3.60632483E-03-4.31608216E-03 3.93374522E-04 7.21333635E-04 7.21470921E-04
 1 10 3.60644420E-03-4.31574913E-03 3.93425480E-04-7.21476936E-04-7.21307815E-04
 2  1 7.03306564E-01 1.98812471E-02-2.13334844E-02-3.07919313E-03 1.76887217E-08
 2  2-1.73142808E-08 1.52526964E-03-4.03282822E-07-1.59305275E-07 1.42494122E-03
 2  3-7.12445569E-04-7.12495654E-04 1.09582413E-07-3.31575933E-09-1.12935490E-03
 2  4-5.23208243E-03 2.16978606E-03 7.40058959E-04-8.60152526E-04 8.60315468E-04
 2  5-5.23207569E-03 2.17013014E-03 7.40016319E-04 8.60346163E-04-8.60145121E-04
 2  6-7.03144603E-01-2.12552076E-02 2.40536599E-02-3.19211280E-03-1.39696097E-08
 2  7-8.98689568E-09 1.07715653E-03 4.50322220E-07-2.28224581E-07-1.04558736E-03
 2  8 5.22779002E-04 5.22808360E-04 1.07179925E-07 1.18874226E-08-5.92918715E-04
 2  9 4.94624879E-03-3.13762138E-03 8.06321853E-04 9.41312737E-04 9.41467806E-04
 2 10 4.94625502E-03-3.13797291E-03 8.06284470E-04-9.41500600E-04-9.41305818E-04
 3  1 1.12370236E-02-3.41043104E-02-2.69180697E-02 3.09941834E-02 1.52068028E-02
 3  2 2.12943049E-02 2.43892106E-02 3.98718298E-02 3.56660702E-02 2.17185091E-03
 3  3-1.08592669E-03-1.08592422E-03 8.30914608E-03 3.64337437E-03 5.81376403E-04
 3  4-3.27652272E-03-2.96698091E-03 4.69449377E-04 1.24617321E-03 6.63573497E-04
 3  5 9.99014073E-03 1.45701089E-02 9.95492862E-04 8.39339701E-04 1.07045494E-03
 3  6-1.32502370E-01 2.76981435E-01 1.24116693E-01-1.74544215E-01-2.63483356E-01
 3  7-1.57481969E-01-6.80224085E-02-1.41628160E-01-5.17527227E-02-4.20485816E-03
 3  8 2.10035280E-03 2.10450536E-03 1.09865821E-02 1.15967275E-02 8.18560070E-03
 3  9 4.26858208E-01 1.31988739E-01 1.60210334E-02 1.69518562E-02 1.99304692E-02
 3 10-3.83694423E-02-4.42815175E-02-2.35286773E-03-7.64779799E-03-4.67189870E-03
 4  1-1.52399954E-03 4.41120577E-02-2.21784068E-01-2.83155467E-02 1.48296735E-01
 4  2 1.21774912E-01 9.78423284E-02-1.93599492E-02-5.70571154E-02-2.47129880E-02
 4  3 1.23547824E-02 1.23582056E-02-8.20623739E-03-1.17483233E-02 3.34553988E-02
 4  4 1.44706444E-02 2.27534689E-02-4.00081192E-03-4.92454586E-03-4.42163635E-03
 4  5 1.53974261E-02 1.43728532E-02-5.12104276E-03-5.13336223E-03-4.21209004E-03
 4  6-1.06873358E-01 2.56213147E-01 1.04384939E+00-3.42434549E-01-3.87736251E-01
 4  7-2.72483038E-01-2.00227352E-01-5.02978371E-01-4.13212742E-01-9.88135662E-02
 4  8 4.94188841E-02 4.93946821E-02-3.03199050E-02-2.94983280E-02-1.77550380E-01
 4  9-8.92385304E-01-9.28831611E-01 2.65014965E-02 1.01127081E-02 1.28360205E-02
 4 10-1.84468121E-02 1.05713450E-01-9.72108972E-03 4.33826318E-03 7.08830067E-03
 5  1-1.13175919E-01 2.51311882E-01 6.75296077E-02-2.99088770E-01 1.33527071E-01
 5  2 1.91801578E-01-1.13863839E-01 1.33271591E-01 1.38326989E-01 2.05628623E-02
 5  3-1.02817108E-02-1.02811515E-02 4.66693313E-03-7.68724414E-03 2.81531865E-03
 5  4-3.33166460E-02-4.54804956E-02-6.55270237E-03 5.35937953E-03 3.68914535E-03
 5  5-3.57228964E-02-7.60160887E-03-3.20176793E-03 5.38382076E-03 3.66522036E-03
 5  6-1.13334556E-01 2.51657616E-01 6.77314766E-02 2.98943160E-01-1.33291668E-01
 5  7 1.91965521E-01 1.13817631E-01-1.33171825E-01 1.38411482E-01 2.05561998E-02
 5  8-1.02780016E-02-1.02781982E-02 4.66570292E-03 7.66956956E-03-2.80887687E-03
 5  9-3.57585065E-02-7.65009537E-03 3.19994461E-03-5.37714364E-03 3.67016703E-03
 5 10-3.29263408E-02-4.53764005E-02 6.56813604E-03-5.37621319E-03 3.67162824E-03
 6  1 1.32109132E-01-4.35352513E-01-7.99802208E-01 5.69231890E-01-1.19458262E-01
 6  2-2.63535522E-01 6.29921562E-01-3.44290334E-02-2.37045005E-01 5.07966016E-02
 6  3-2.53989694E-02-2.53976322E-02 4.94306534E-03-4.31122414E-04-1.06697144E-01
 6  4 1.50294036E-02 5.48474996E-02-3.96359163E-03-5.67189378E-03-1.97894821E-03
 6  5-6.38708233E-02-6.79138925E-02-1.08312620E-02-5.79876982E-03-1.84702231E-03
 6  6-1.32227078E-01 4.35681196E-01 8.00630142E-01 5.68905272E-01-1.18967525E-01
 6  7 2.63669092E-01 6.29618932E-01-3.39608419E-02 2.37418970E-01-5.09207796E-02
 6  8 2.54562842E-02 2.54644954E-02-4.92876568E-03-4.12953347E-04-1.06906844E-01
 6  9 6.38315986E-02 6.79930293E-02-1.08360585E-02-5.80979997E-03 1.84982712E-03
 6 10-1.58721271E-02-5.57037130E-02-3.93488157E-03-5.68330342E-03 1.97219844E-03
 7  1 1.32523129E-01-2.77027642E-01-1.24129103E-01-1.74488518E-01 2.63535793E-01
 7  2-1.57407620E-01-6.80009312E-02 1.41679926E-01-5.16990769E-02 4.20108942E-03
 7  3-2.09848526E-03-2.10260416E-03 1.09883771E-02-1.15997709E-02 8.18507520E-03
 7  4-4.26851456E-01-1.31991066E-01 1.60213101E-02-1.69497692E-02 1.99318686E-02
 7  5 3.83760518E-02 4.42940286E-02-2.35133807E-03 7.64985789E-03-4.67044012E-03
 7  6-1.12178981E-02 3.40616106E-02 2.69072320E-02 3.09368051E-02-1.52567671E-02
 7  7 2.13702451E-02 2.43673049E-02-3.99226796E-02 3.57203651E-02-2.17568862E-03
 7  8 1.08784393E-03 1.08784469E-03 8.31089753E-03-3.64047668E-03 5.81997191E-04
 7  9 3.28313474E-03 2.97914450E-03 4.67914435E-04-1.24814017E-03 6.65109808E-04
 7 10-9.97899442E-03-1.45713572E-02 9.95407117E-04-8.41633359E-04 1.07166639E-03
 8  1-1.06897393E-01 2.56293123E-01 1.04399265E+00 3.42329003E-01-3.87784626E-01
 8  2 2.72379745E-01 2.00112955E-01-5.02993149E-01 4.13121537E-01-9.88232220E-02
 8  3 4.94235304E-02 4.93996916E-02 3.03221190E-02-2.94984333E-02 1.77570460E-01
 8  4-8.92365670E-01-9.28807075E-01-2.64989535E-02 1.01105693E-02-1.28368769E-02
 8  5-1.84558737E-02 1.05692851E-01 9.72109077E-03 4.33612100E-03-7.08907368E-03
 8  6-1.50112605E-03 4.40354103E-02-2.21917039E-01 2.82065506E-02 1.48253737E-01
 8  7-1.21670475E-01-9.79605637E-02-1.93695170E-02 5.71527747E-02-2.47049279E-02
 8  8 1.23507759E-02 1.23541520E-02 8.20459368E-03-1.17483090E-02-3.34380892E-02
 8  9 1.44789316E-02 2.27747948E-02 4.00078811E-03-4.92680808E-03 4.42236633E-03
 8 10 1.53682378E-02 1.43383330E-02 5.12399218E-03-5.13571828E-03 4.21272007E-03
 9  1 7.23599729E-02-1.60692619E-01-4.32284037E-02 1.91314024E-01 2.08783707E-01
 9  2 3.00016050E-01 7.28433993E-02 2.08437972E-01 2.16388064E-01-1.31471779E-02
 9  3 6.57335370E-03 6.57382415E-03 7.30774024E-03-1.20115759E-02-1.80430198E-03
 9  4 2.40644834E-02-1.26107435E-02 4.94395792E-04 8.41417279E-03 5.73836144E-03
 9  5 2.02156099E-02 4.66078797E-02 5.73899718E-03 8.39116471E-03 5.76217830E-03
 9  6 7.23369169E-02-1.60638995E-01-4.31490608E-02-1.91316992E-01-2.08773310E-01
 9  7 3.00027082E-01-7.28473524E-02-2.08435845E-01 2.16390631E-01-1.31476249E-02
 9  8 6.57416167E-03 6.57346325E-03 7.30678060E-03 1.20130003E-02 1.80064574E-03
 9  9 2.01836875E-02 4.65891251E-02-5.74080687E-03-8.39216541E-03 5.76043399E-03
 9 10 2.40533822E-02-1.26241300E-02-4.94979852E-04-8.41406423E-03 5.73935976E-03
10  1-8.44582674E-02 2.78379671E-01 5.10954810E-01-3.64078460E-01-1.86573918E-01
10  2-4.12049437E-01-4.02744827E-01-5.37437373E-02-3.70800786E-01-3.24780803E-02
10  3 1.62341628E-02 1.62439175E-02 7.73828651E-03-6.80391098E-04 6.82077443E-02
10  4 7.75247549E-02 1.00389641E-01 1.01031497E-02-9.02113926E-03-2.95764296E-03
10  5-4.60371175E-02-9.17824290E-02-6.44676205E-04-8.93259145E-03-3.03933713E-03
10  6 8.44434996E-02-2.78335881E-01-5.10946671E-01-3.64097550E-01-1.86540185E-01
10  7 4.12061719E-01-4.02751566E-01-5.37295128E-02 3.70866547E-01 3.24773440E-02
10  8-1.62413899E-02-1.62359541E-02-7.72242630E-03-6.80526943E-04 6.82102450E-02
10  9 4.60633033E-02 9.18290431E-02-6.47636733E-04-8.93771127E-03 3.03971612E-03
10 10-7.75510348E-02-1.00421315E-01 1.01029835E-02-9.01752236E-03 2.95242394E-03
11  1-1.13184289E-02 3.42845173E-02 2.69496187E-02-3.12296823E-02 1.53880934E-02
11  2 2.15606464E-02-2.44792756E-02 4.00546538E-02 3.58562322E-02-2.15483645E-03
11  3 1.07741442E-03 1.07742203E-03 8.31604437E-03 3.63199347E-03-5.80059073E-04
11  4-1.00152621E-02-1.46134346E-02-1.00156339E-03 8.46595467E-04 1.07566525E-03
11  5 3.24798635E-03 2.97959416E-03-4.70632328E-04 1.25395738E-03 6.68403267E-04
11  6 1.32409330E-01-2.76773471E-01-1.24047972E-01 1.74769928E-01-2.63690319E-01
11  7-1.57200011E-01 6.81032504E-02-1.41820376E-01-5.15537331E-02 4.21980069E-03
11  8-2.11232466E-03-2.10747603E-03 1.09946942E-02 1.16059218E-02-8.18786019E-03
11  9 3.83454987E-02 4.42853251E-02 2.35452817E-03-7.65520166E-03-4.66630787E-03
11 10-4.26887319E-01-1.32037162E-01-1.60160256E-02 1.69472788E-02 1.99324837E-02
12  1 1.62149850E-03-4.44644975E-02 2.21298720E-01 2.87685553E-02 1.48159763E-01
12  2 1.21403275E-01-9.73152232E-02-1.94006477E-02-5.73844258E-02 2.47493735E-02
12  3-1.23749401E-02-1.23744334E-02-8.20264719E-03-1.17530054E-02-3.35334833E-02
12  4-1.53947214E-02-1.43610451E-02 5.11959248E-03-5.14356823E-03-4.21438698E-03
12  5-1.45695881E-02-2.28861518E-02 3.98729292E-03-4.93435061E-03-4.42315417E-03
12  6 1.06768799E-01-2.55871177E-01-1.04322870E+00 3.42857251E-01-3.87930669E-01
12  7-2.72099465E-01 2.00712690E-01-5.03117504E-01-4.12777667E-01 9.87745675E-02
12  8-4.93682608E-02-4.94063067E-02-3.03585752E-02-2.94729146E-02 1.77461926E-01
12  9 1.85050890E-02-1.05625166E-01 9.71101035E-03 4.32898228E-03 7.09232732E-03
12 10 8.92341383E-01 9.28758753E-01-2.65051281E-02 1.00786438E-02 1.28689979E-02
13  1 1.32502640E-01-2.76981040E-01-1.24104741E-01-1.74524435E-01-2.63502968E-01
13  2 1.57468529E-01-6.80092144E-02-1.41634108E-01 5.17469825E-02 4.20310815E-03
13  3-2.10397268E-03-2.09913547E-03-1.09883316E-02 1.15950354E-02 8.18559747E-03
13  4 3.83749647E-02 4.42806908E-02-2.35282283E-03-7.64771682E-03 4.67147683E-03
13  5-4.26860936E-01-1.31988829E-01 1.60223935E-02 1.69547956E-02-1.99273402E-02
13  6-1.12320526E-02 3.40919401E-02 2.69001681E-02 3.09772980E-02 1.52072706E-02
13  7-2.12873730E-02 2.43831401E-02 3.98710648E-02-3.56606479E-02-2.17183484E-03
13  8 1.08591497E-03 1.08591987E-03-8.30974912E-03 3.64248106E-03 5.82737782E-04
13  9-9.98566693E-03-1.45653589E-02 9.95308443E-04 8.39508539E-04-1.07011953E-03
13 10 3.29266069E-03 2.97890304E-03 4.69546530E-04 1.24572206E-03-6.64006087E-04
14  1-1.06877099E-01 2.56229652E-01 1.04387442E+00 3.42391497E-01 3.87758952E-01
14  2-2.72471882E-01 2.00203088E-01 5.03068916E-01-4.13108427E-01-9.88174421E-02
14  3 4.93896278E-02 4.94278143E-02-3.03513095E-02 2.94726255E-02 1.77551041E-01
14  4-1.84307303E-02 1.05715632E-01 9.72158427E-03-4.33693397E-03 7.08974840E-03
14  5-8.92376572E-01-9.28838952E-01-2.65041103E-02-1.00865969E-02 1.28663033E-02
14  6-1.51844359E-03 4.41205744E-02-2.21904785E-01 2.82876291E-02-1.48317334E-01
14  7 1.21779760E-01-9.78392048E-02 1.93650560E-02-5.70411031E-02-2.47124528E-02
14  8 1.23564968E-02 1.23559560E-02-8.20880882E-03 1.17531132E-02-3.34544981E-02
14  9 1.54202606E-02 1.44361636E-02 5.12073215E-03 5.13551185E-03-4.21175766E-03
14 10 1.44623571E-02 2.27628015E-02 3.99900516E-03 4.92592242E-03-4.42089846E-03
15  1-1.38028601E-01 1.21577573E+00-7.19035398E+00-9.36717489E-02 1.19480289E-06
15  2 1.22508308E-05 3.83261051E+00 7.81897314E-05-1.71424743E-04-1.33209333E-01
15  3 6.66036594E-02 6.66056736E-02 2.13534857E-05 6.20896478E-08 5.53135335E-02
15  4-4.70804891E-02 1.90854487E-01-1.67581311E-01-1.64689671E-01 1.64713378E-01
15  5-4.71624461E-02 1.90747100E-01-1.67576370E-01 1.64726124E-01-1.64695068E-01
15  6 1.38545674E-01-1.21633567E+00 7.19254244E+00-9.34844278E-02-1.44442783E-06
15  7 1.21044698E-05 3.83179796E+00-7.86037949E-05-1.72466403E-04 1.33225644E-01
15  8-6.66118502E-02-6.66137936E-02 2.16679729E-05 1.75076912E-07 5.53693622E-02
15  9 4.71544212E-02-1.91995807E-01-1.67561824E-01 1.64615329E-01 1.64639318E-01
15 10 4.72375318E-02-1.91887414E-01-1.67556477E-01-1.64652393E-01-1.64621309E-01
16  1 1.75952147E-01-1.32007662E+00 3.16385085E+00-3.14496126E-01-1.53257691E-05
16  2-3.37419888E-05 9.30909526E-01 4.46590319E-05 1.52076500E-04 8.23033624E-02
16  3-4.11517363E-02-4.11516261E-02 4.95424793E-06-3.61525369E-06 4.42456964E-02
16  4 2.10917655E-01-1.51911116E+00-1.11237533E-01 2.55886355E-02-2.56155850E-02
16  5 2.10924688E-01-1.51905668E+00-1.11238489E-01-2.56094169E-02 2.55816902E-02
16  6 1.76377052E-01-1.31935042E+00 3.15980054E+00 3.14565332E-01-1.64101621E-05
16  7 3.29670787E-05-9.33744352E-01 4.72932677E-05-1.51208840E-04 8.22398534E-02
16  8-4.11199529E-02-4.11199005E-02-4.42950442E-06-3.27297418E-06-4.42415475E-02
16  9 2.10945769E-01-1.51947714E+00 1.11314472E-01 2.53981643E-02 2.54253234E-02
16 10 2.10953948E-01-1.51942714E+00 1.11315938E-01-2.54199557E-02-2.53920649E-02
17  1 1.40802359E-01-1.00359372E+00 1.21397212E+00-4.59406561E-01-1.39227526E-04
17  2 4.84825869E-05 1.79891279E+00 5.20128650E-04-1.65900047E-04 6.06498786E-02
17  3-3.03278745E-02-3.03220041E-02-3.74732318E-05 1.88305202E-06 1.09528416E-01
17  4 2.98791588E-01-1.35516610E+00-2.17987066E-01 1.78803045E-02-1.79286839E-02
17  5 2.98798785E-01-1.35578786E+00-2.17976968E-01-1.79702544E-02 1.79208036E-02
17  6-1.41077879E-01 1.00297331E+00-1.21335179E+00-4.59320706E-01 1.41373344E-04
17  7 5.06761220E-05 1.79891010E+00-5.24137269E-04-1.72025158E-04-6.05886809E-02
17  8 3.02972021E-02 3.02914788E-02-3.78482377E-05-2.92408464E-06 1.09434728E-01
17  9-2.98676141E-01 1.35495172E+00-2.17909847E-01-1.77807786E-02-1.78289958E-02
17 10-2.98685542E-01 1.35558559E+00-2.17900052E-01 1.78718791E-02 1.78226206E-02
18  1 2.28971222E-05-1.45433142E-04 9.51303468E-05-9.96858636E-05 5.26175600E-01
18  2-3.96946450E-01 3.14975166E-04-1.93494149E+00 1.06469669E+00 2.16686674E-05
18  3-1.02894717E-05-1.13791957E-05 1.59676646E-01-4.15512190E-04 2.00997831E-05
18  4 1.24241619E-01-1.58121989E+00 5.30711175E-02 1.34053822E-01-4.25783131E-02
18  5-1.24083267E-01 1.58078413E+00-5.31505658E-02 1.34040039E-01-4.25732899E-02
18  6-2.31517838E-05 1.45799189E-04-9.68399269E-05-1.00061680E-04-5.10250327E-01
18  7-3.75582712E-01 3.15431963E-04 1.89267365E+00 9.85801396E-01-2.18006082E-05
18  8 1.00258175E-05 1.17747907E-05 1.59794718E-01-6.17015992E-03 1.97008912E-05
18  9-1.19225825E-01 1.51735873E+00 5.09264845E-02-1.32410987E-01-3.70857812E-02
18 10 1.19065958E-01-1.51692082E+00-5.10052109E-02-1.32397792E-01-3.70806082E-02
19  1 2.15173285E-06 6.85873410E-06-1.48195623E-05-1.70865752E-05-3.75593994E-01
19  2 5.10242334E-01 8.04752907E-06 9.85813838E-01-1.89261794E+00 8.19774520E-07
19  3 8.59028684E-06-9.41006136E-06 6.16629366E-03 1.59794185E-01-1.28195535E-06
19  4-1.19134107E-01 1.51712747E+00-5.09629109E-02-3.70863237E-02 1.32393499E-01
19  5 1.19181778E-01-1.51713503E+00 5.09674455E-02-3.70863472E-02 1.32413129E-01
19  6 7.96549117E-07 1.58337318E-05-2.29241714E-05 1.15883585E-05-3.96957378E-01
19  7-5.26166237E-01 1.12446242E-05 1.06471279E+00 1.93488570E+00-4.24812180E-07
19  8 9.15546585E-06-8.73065367E-06 4.18448117E-04 1.59675143E-01 2.24499590E-06
19  9-1.24152622E-01 1.58100323E+00 5.31063712E-02-4.25783435E-02-1.34034948E-01
19 10 1.24192392E-01-1.58098327E+00-5.31153563E-02-4.25783172E-02-1.34054947E-01
20  1 1.24884275E-06 3.83320526E-06-1.35817938E-04-2.36521173E-05-1.75470287E-01
20  2 5.85418632E-01 2.93795919E-05-1.36379548E+00 4.03346449E-01-2.54591321E-05
20  3-8.94036639E-05 1.14862796E-04-5.56286864E-01 5.10719687E-01 1.17829760E-06
20  4-9.17846956E-01-2.09523220E-01 2.92217559E-01-2.46427641E-01 3.85135114E-01
20  5 9.17914760E-01 2.09552177E-01-2.92227877E-01-2.46484833E-01 3.85099582E-01
20  6 1.15804334E-06-2.02123434E-05 1.16889543E-04-1.19433123E-05 9.39398646E-02
20  7 5.66349387E-01 3.40527287E-05 1.32013862E+00 2.13364350E-01 2.70053993E-05
20  8 7.73202467E-05-1.04325646E-04-4.89220216E-01-4.36714350E-01-1.44855086E-05
20  9 7.96503116E-01 1.81826376E-01 2.53592497E-01 1.94124038E-01 3.53951959E-01
20 10-7.96550192E-01-1.81836222E-01-2.53580386E-01 1.94157620E-01 3.53908314E-01
21  1-2.39054191E-05 1.62407879E-04 1.98548848E-04 1.05358166E-04 5.66357988E-01
21  2-9.39285945E-02 7.48719844E-05 2.13375278E-01-1.32012861E+00-1.56979452E-05
21  3 8.38388801E-05-6.81409349E-05 4.36723816E-01-4.89209634E-01-1.50041877E-04
21  4 7.96410289E-01 1.81736725E-01-2.53491443E-01 3.53831465E-01-1.94081466E-01
21  5-7.96625754E-01-1.81946347E-01 2.53688237E-01 3.54043876E-01-1.94187331E-01
21  6-2.42648173E-05 1.63170862E-04 2.25200820E-04-1.09056997E-04 5.85427484E-01
21  7 1.75456547E-01-7.06728797E-05 4.03357140E-01 1.36378177E+00-1.13307759E-05
21  8 9.57113378E-05-8.43805619E-05-5.10729656E-01-5.56273708E-01 1.51320916E-04
21  9 9.17758942E-01 2.09433359E-01 2.92124849E-01 3.85014026E-01 2.46396529E-01
21 10-9.17986328E-01-2.09651970E-01-2.92324292E-01 3.85235812E-01 2.46499232E-01
22  1 1.38572848E-01-8.37337010E-01-1.25782297E+00-4.06475554E-01 5.62739259E-05
22  2-7.39148572E-05-6.66423552E-01 3.65507326E-05-3.16831157E-04 8.44964869E-02
22  3-4.22619382E-02-4.22345487E-02 5.10013653E-05-1.58815955E-04 7.76543293E-01
22  4 6.57914043E-01 6.29384195E-01-3.80537658E-01 4.55081536E-01-4.55119037E-01
22  5 6.57588913E-01 6.29283570E-01-3.80448011E-01-4.54999541E-01 4.54940170E-01
22  6 1.38557112E-01-8.38087500E-01-1.25747239E+00 4.06707638E-01 5.54217745E-05
22  7 7.73479568E-05 6.66757719E-01 4.54396638E-05 3.17746995E-04 8.44819387E-02
22  8-4.22541573E-02-4.22277814E-02-5.33276472E-05-1.61560132E-04-7.76931461E-01
22  9 6.58266988E-01 6.29470902E-01 3.80766533E-01 4.55338479E-01 4.55377995E-01
22 10 6.57930736E-01 6.29373376E-01 3.80674912E-01-4.55255759E-01-4.55195063E-01
23  1 1.36903385E-01-6.86989757E-01-2.05585516E+00-3.47950411E-01-8.75963961E-05
23  2-2.38943902E-05-3.28840834E-03-3.15358802E-05-1.81271914E-05-3.00762974E-02
23  3 1.50227133E-02 1.50535841E-02-1.21940157E-04-6.29890839E-06 7.25250876E-01
23  4 5.44404201E-01 6.88021973E-01-4.43120817E-01 4.28608972E-01-4.28669977E-01
23  5 5.44420301E-01 6.88162559E-01-4.43174739E-01-4.28753097E-01 4.28675550E-01
23  6-1.36711422E-01 6.86745727E-01 2.05467663E+00-3.47818958E-01 8.77978109E-05
23  7-2.16895662E-05-2.73714389E-03 3.27251834E-05-2.26299021E-05 3.01224943E-02
23  8-1.50462986E-02-1.50761957E-02-1.22221004E-04 6.09940387E-06 7.24867370E-01
23  9-5.44099231E-01-6.87433904E-01-4.42949878E-01-4.28370671E-01-4.28431474E-01
23 10-5.44111150E-01-6.87582171E-01-4.43005315E-01 4.28516028E-01 4.28439357E-01
24  1 1.15679988E-05-5.99533065E-05-1.88288516E-04-6.21023102E-05 5.36798122E-01
24  2-3.02580496E-01 3.13915533E-05-2.74627400E-01-2.99710310E-01 5.40169234E-05
24  3 3.25181419E-05-8.65350653E-05 4.43882682E-01-2.95561254E-01 8.44235478E-05
24  4-4.10614759E-02 7.83863066E-01-2.65110240E-01 4.35048673E-01-3.48407365E-01
24  5 4.11907684E-02-7.83763494E-01 2.64991678E-01 4.35006675E-01-3.48295478E-01
24  6-1.24072831E-05 6.52372921E-05 1.91444031E-04-6.05232808E-05-5.17838879E-01
24  7-2.67506723E-01 2.25880439E-05 2.95192996E-01-3.18663182E-01-5.51253966E-05
24  8-2.91065820E-05 8.42319786E-05 4.25184934E-01 2.66660061E-01 8.68068885E-05
24  9 3.84096237E-02-7.33407943E-01-2.48048124E-01-4.12818794E-01-3.20212236E-01
24 10-3.85468313E-02 7.33306059E-01 2.47929713E-01-4.12771241E-01-3.20100194E-01
25  1 7.40150764E-06-5.52825732E-05-3.03528390E-05 2.22271130E-05-2.67510630E-01
25  2 5.17837197E-01-1.01271779E-04-3.18666600E-01-2.95213623E-01 1.09798396E-05
25  3-4.98027511E-05 3.88229115E-05-2.66664478E-01 4.25176340E-01 1.31391626E-05
25  4 3.85219877E-02-7.33343133E-01 2.47995642E-01-3.20129984E-01 4.12798638E-01
25  5-3.84338311E-02 7.33357238E-01-2.47982073E-01-3.20192841E-01 4.12777220E-01
25  6 6.03721786E-06-4.85916711E-05-1.07800162E-05-2.78312403E-05-3.02584330E-01
25  7-5.36797133E-01 1.02777847E-04-2.99717405E-01 2.74648217E-01 6.62111805E-06
25  8-5.17623051E-05 4.51411871E-05 2.95567444E-01 4.43874673E-01-4.12794485E-06
25  9 4.11625690E-02-7.83805300E-01-2.65063845E-01-3.48329089E-01-4.35037219E-01
25 10-4.10869066E-02 7.83807311E-01 2.65038320E-01-3.48385660E-01-4.35004635E-01
26  1 4.67956464E-02-4.13478970E-01-2.60562565E-02 5.53851698E-01-1.73207616E-06
26  2-2.35900763E-05-1.09462511E+00-1.02111479E-05 6.33643328E-05 7.16169341E-02
26  3-3.58068233E-02-3.58101108E-02-1.30046980E-05-4.26033293E-05-1.02374390E-01
26  4 1.45524321E-01 2.71879891E-03 3.27174359E-01 1.66905720E-02-1.66814374E-02
26  5 1.45609310E-01 2.65221525E-03 3.27168487E-01-1.66480906E-02 1.66569408E-02
26  6 4.70427034E-02-4.13627735E-01-2.55468190E-02-5.53920779E-01-2.09705338E-06
26  7 2.33895686E-05 1.09489023E+00-9.91817140E-06-6.35299977E-05 7.15209122E-02
26  8-3.57588829E-02-3.57620293E-02 1.36034596E-05-4.23994731E-05 1.02255487E-01
26  9 1.45739050E-01 2.50027447E-03-3.27206136E-01 1.67118992E-02 1.67027604E-02
26 10 1.45824039E-01 2.43472222E-03-3.27200000E-01-1.66700117E-02-1.66788928E-02
27  1 7.90748453E-02-2.46800324E-01-5.46517972E-01 3.58996934E-01 2.14465906E-05
27  2-5.91525267E-05 2.23297303E-01 1.81814177E-06 5.59581289E-06-9.75296332E-01
27  3 4.87650045E-01 4.87646287E-01 4.00650590E-06 9.18107937E-06-7.56199787E-02
27  4 1.39597637E-01-1.19741167E-01 3.11927932E-01 9.60799065E-02-9.60842088E-02
27  5 1.39609704E-01-1.19809309E-01 3.11969787E-01-9.60572804E-02 9.60477966E-02
27  6-7.89414086E-02 2.46848650E-01 5.46465303E-01 3.58934876E-01-2.18834457E-05
27  7-5.96718524E-05 2.23477692E-01-2.08835189E-06 5.46693748E-06 9.75275943E-01
27  8-4.87639801E-01-4.87636142E-01 4.19223782E-06-8.76351794E-06-7.57058562E-02
27  9-1.39423073E-01 1.19612213E-01 3.11862776E-01-9.60871855E-02-9.60915761E-02
27 10-1.39434779E-01 1.19681414E-01 3.11905718E-01 9.60642009E-02 9.60547751E-02
28  1-6.41366993E-02 5.23657560E-01-2.25918592E-01 1.99657435E-01-8.67957175E-06
28  2-3.72628965E-05-6.08280508E-01 7.46253175E-07 2.17948293E-05 2.27227580E-01
28  3-1.13623079E-01-1.13604501E-01-7.22987624E-05-2.46432010E-05 2.98119730E-01
28  4 5.27545415E-01-3.02398593E-01 1.94634317E-02-7.74768233E-02 7.74951839E-02
28  5 5.27560000E-01-3.02406387E-01 1.94846459E-02 7.74994642E-02-7.74715906E-02
28  6 6.41705758E-02-5.21874400E-01 2.25350628E-01 1.99573427E-01 9.15715375E-06
28  7-3.72589251E-05-6.08153269E-01-9.28730040E-07 2.20207275E-05-2.27485438E-01
28  8 1.13751802E-01 1.13733636E-01-7.24625752E-05 2.45434915E-05 2.97225195E-01
28  9-5.26064842E-01 3.00902394E-01 1.92372021E-02 7.71274573E-02 7.71458066E-02
28 10-5.26079438E-01 3.00909912E-01 1.92582011E-02-7.71501419E-02-7.71223965E-02
29  1-9.41332909E-02 6.62245735E-01-3.09257557E-01 4.47877911E-02-2.05126201E-05
29  2-1.53566115E-05 2.80636524E-03 5.17967850E-05-1.64564262E-05-1.90590846E-02
29  3 9.52664935E-03 9.53243527E-03 2.46812136E-05 4.94486762E-06 3.09108724E-01
29  4 4.46710907E-01-4.16604674E-01-7.01113108E-04-1.41273941E-01 1.41245603E-01
29  5 4.46667944E-01-4.16630747E-01-6.70149357E-04 1.41259107E-01-1.41286507E-01
29  6-9.49001535E-02 6.64125503E-01-3.11216537E-01-4.55015153E-02-2.05246442E-05
29  7 1.53693539E-05-1.22489688E-03 5.15914326E-05 1.64649953E-05-1.86180384E-02
29  8 9.30630070E-03 9.31173771E-03-2.39931558E-05 4.92901830E-06-3.09921187E-01
29  9 4.48318173E-01-4.17358511E-01 5.38992019E-04-1.41473627E-01-1.41445659E-01
29 10 4.48275203E-01-4.17384534E-01 5.07763438E-04 1.41459113E-01 1.41486320E-01
30  1 1.11650035E-07-1.49626701E-06 3.91740213E-06-7.61981006E-07-6.38995128E-05
30  2-1.07310323E-04 2.82149855E-06-1.67156645E-05 2.16196782E-04-1.68662442E-06
30  3-5.89747735E-01 5.89749422E-01 1.45102576E-04 6.34250434E-05-1.62063209E-05
30  4-9.18965251E-05-1.34951057E-05 1.08851811E-04-3.24569604E-01-3.24594822E-01
30  5 8.54739703E-05 1.48259368E-05-1.07021466E-04 3.24437523E-01 3.24425660E-01
30  6-1.12351158E-07 1.49816047E-06-3.91776011E-06-7.71030632E-07 6.48092889E-05
30  7-1.07041606E-04 2.82318075E-06 1.78835933E-05 2.16510203E-04 1.69859450E-06
30  8 5.89744605E-01-5.89746304E-01 1.43618365E-04-6.03593350E-05-1.56932441E-05
30  9 9.24271817E-05 1.39041345E-05 1.10088128E-04 3.24566256E-01-3.24591116E-01
30 10-8.60035408E-05-1.52372692E-05-1.08239872E-04-3.24437239E-01 3.24425259E-01
31  1-1.85234692E-02 1.45092787E-01-2.07659291E-01-3.69433137E-01-3.32834215E-04
31  2 2.07858645E-05 2.36636902E-02 1.82235892E-04 4.57658510E-05-5.40943541E-01
31  3 2.70470653E-01 2.70472888E-01-9.28823474E-05-4.45245691E-04-1.37440415E-01
31  4 1.19005895E-01-1.94291348E-02 3.66631746E-01 2.14075207E-01-2.13867848E-01
31  5 1.18886210E-01-1.93166946E-02 3.66399572E-01-2.13918904E-01 2.14125525E-01
31  6-1.87634603E-02 1.45387475E-01-2.08055532E-01 3.69333857E-01-3.32342351E-04
31  7-1.80666143E-05-2.34758569E-02 1.82665947E-04-4.71549430E-05-5.40904218E-01
31  8 2.70450913E-01 2.70453305E-01 9.57733118E-05-4.45740931E-04 1.37355799E-01
31  9 1.19216136E-01-1.95112408E-02-3.66668113E-01 2.14056746E-01 2.13848356E-01
31 10 1.19097319E-01-1.93998955E-02-3.66438638E-01-2.13899158E-01-2.14107109E-01
32  1-7.79050423E-06 6.96100186E-05-1.29518549E-04-1.78074776E-04 5.44826174E-01
32  2 5.68361589E-02-7.35821580E-06-6.73409559E-01-1.69840376E-02-2.46189067E-04
32  3 9.11835321E-05 1.55005535E-04-1.82090876E-01 3.32598325E-01-2.50007544E-05
32  4-2.49156179E-01 1.03785117E-02-1.88297854E-02 1.00541797E-01 5.61601495E-02
32  5 2.49347460E-01-1.04094607E-02 1.91490260E-02 1.00346904E-01 5.63732355E-02
32  6-8.13434159E-06 7.04431677E-05-1.27574897E-04 1.78693331E-04 5.43416760E-01
32  7-4.11894098E-02 7.82749347E-06-6.73199680E-01-2.37756320E-03-2.45126859E-04
32  8 9.31588062E-05 1.51968053E-04 1.91731427E-01 3.37973170E-01 2.57280983E-05
32  9-2.56429036E-01 1.06819181E-02 1.93834874E-02 9.89665806E-02-5.32964667E-02
32 10 2.56618254E-01-1.07124940E-02-1.97028495E-02 9.87681736E-02-5.35052114E-02
33  1-8.57196042E-06 2.35128526E-05 1.00885448E-04-3.31329211E-05-4.11788929E-02
33  2-5.43424451E-01-1.11739210E-05-2.37896558E-03 6.73188700E-01 3.06563994E-05
33  3 8.02907966E-05-1.10947196E-04-3.37989343E-01 1.91721959E-01-4.49879930E-05
33  4-2.56563452E-01 1.07062303E-02-1.95458156E-02-5.33295332E-02-9.87926094E-02
33  5 2.56462110E-01-1.06909974E-02 1.95645882E-02-5.34648712E-02-9.89305293E-02
33  6 8.25919619E-06-2.10337914E-05-1.05231563E-04-2.67130316E-05 5.68257077E-02
33  7-5.44833471E-01-1.10733365E-05-1.69820048E-02 6.73398775E-01-3.95850343E-05
33  8-7.44515647E-05 1.14036599E-04-3.32614914E-01-1.82079699E-01-4.37125772E-05