%subst l530 /share/home/srwang/phf
%nproc=1
%mem=4GB
!%oldchk=uhf-1.30.chk
%chk=suhf-dis.chk
#p uhf/cc-pvdz guess=mix scf=maxcyc=1
# scf=conver=3 
# extralink=l530 iop(5/13=1, 5/206=9, 5/207=4, 5/214=6, 5/216=1, 5/218=100, 5/220=1) pop=none 

title

0 1
N 0.0 0.0 0.0
N 0.0 0.0 dis

