%nproc=1
%mem=1gb
%chk=n2.chk
#p uhf/cc-pvdz guess(fragment=2, only)

title

0 1 0 4 0 -4
N(fragment=1) 0.0 0.0 0.0
N(fragment=2) 0.0 0.0 0.9

--Link1--
%nproc=1
%mem=1gb
%chk=n2.chk
#p uhf chkbasis guess(read) geom=allcheck scf=(conver=2)

