%nproc=1
%mem=200mb
#p hf/3-21g nosymm iop( 3/33=1, 5/33=4)

title

0 1
H 0.0 0.0 0.0
H 0.0 0.0 2.0


