%nproc=1
%mem=1gb
%oldchk=uhf-1.30.chk
%chk=uhf-0.90.chk
#p uhf chkbasis guess=(read) scf=conver=2 nosymm int=nobasistransform

tilte

0 1
N 0.0 0.0 0.0
N 0.0 0.0 0.9

