%nproc=1
%mem=4GB
%chk=rhf-1.0.chk
#p uhf/cc-pvdz pop=none 

title

0 1
H 0.0 0.0 0.0
H 0.0 0.0 1.0


