%nproc=1
%mem=4GB
# casscf/3-21g 

mokit{hardwfn}

0 1
H 0.0 0.0 0.0
H 0.0 0.0 2.0


