%chk=cas_rhf.chk
%mem=4GB
%nprocshared=1
#p scf(xqc,maxcycle=128) nosymm int=nobasistransform RHF/3-21g 5D 7F

HF file generated by AutoMR of MOKIT

0 1
H         0.00000000     0.00000000     0.00000000
H         0.00000000     0.00000000     2.00000000


