 $CONTRL SCFTYP=GVB RUNTYP=ENERGY ICHARG=0 MULT=1 NOSYM=1 ICUT=11
  MAXIT=500 RELWFN=DK $END
 $SYSTEM MWORDS=500 $END
 $SCF NCO=0 NPAIR=1 DIRSCF=.TRUE. $END
 $GUESS GUESS=MOREAD NORB=4 $END
 $DATA
GAMESS inp format file produced by MOKIT, nbf=4
C1   1
H     1.         0.00000000         0.00000000         0.00000000
   S  2
   1   5.44717800E+00   1.56284979E-01   0.00000000E+00
   2   8.24547240E-01   9.04690877E-01   0.00000000E+00
   S  1
   1   1.83191580E-01   1.00000000E+00   0.00000000E+00

H     1.         0.00000000         0.00000000         2.00000001
   S  2
   1   5.44717800E+00   1.56284979E-01   0.00000000E+00
   2   8.24547240E-01   9.04690877E-01   0.00000000E+00
   S  1
   1   1.83191580E-01   1.00000000E+00   0.00000000E+00

 $END
 $VEC
 1  1 2.40886664E-01 4.68755560E-01 2.40886664E-01 4.68755560E-01
 2  1 2.92126569E-01 5.59225642E-01-2.92126569E-01-5.59225642E-01
 3  1 9.07098966E-01-9.63816400E-01-9.07098966E-01 9.63816400E-01
 4  1-8.85652529E-01 6.67047984E-01-8.85652529E-01 6.67047984E-01
 $END
