%nproc=1
%mem=4GB
%chk=rhf-1.05.chk
#p uhf/cc-pvdz pop=none 

title

0 1
N 0.0 0.0 0.0
N 0.0 0.0 1.05


