%nproc=1
%mem=4GB
%chk=uhf-single.chk
#p uhf/cc-pvdz !guess=mix stable=opt pop=none 

title

0 4
N 0.0 0.0 0.0
!N 0.0 0.0 1.00


