%nproc=1
%mem=4GB
%chk=uhf-2.35.chk
#p uhf/cc-pvdz guess=mix stable=opt pop=none 

title

0 1
N 0.0 0.0 0.0
N 0.0 0.0 2.35


