%nproc=1
%mem=4GB
%chk=rhf-0.8.chk
#p uhf/cc-pvdz pop=none 

title

0 1
H 0.0 0.0 0.0
H 0.0 0.0 0.8


