%subst l530 .
%subst l601 .
%nproc=1
%mem=40GB
%oldchk=gauuhf.chk
%chk=test.chk
#p uhf/def2svp guess=read  extralink=l530 iop( 5/7=4) pop=none 

title

0 1
H 0.0 0.0 0.0
H 0.0 0.0 2.0


