%nproc=1
%mem=4GB
%chk=uhf-2.0.chk
#p uhf/cc-pvdz guess=mix pop=none 

title

0 1
H 0.0 0.0 0.0
H 0.0 0.0 2.0


